c b=8,c=1027
p cnf 26 232
1 3 5 7 8 -16 0
2 4 6 8 -17 0
8 -26 0
1 3 5 7 -8 16 0
1 3 5 7 -8 17 0
-8 26 0
2 4 6 7 -15 0
1 3 5 7 -18 0
7 -25 0
2 4 6 -7 8 16 0
8 -18 0
2 4 6 -7 -8 -16 0
-7 -8 18 0
2 4 6 -7 15 0
2 4 6 -7 -17 0
-7 25 0
1 3 5 6 -14 0
6 -24 0
1 3 5 -6 8 -16 0
1 3 5 7 8 -17 0
1 3 5 -6 -8 16 0
1 3 5 -6 7 15 0
-6 -7 8 17 0
1 3 5 -7 -8 -17 0
1 3 5 -6 -7 -15 0
1 3 5 -6 14 0
-6 24 0
2 4 5 -13 0
5 -23 0
2 4 6 7 8 -16 0
2 4 6 7 -8 16 0
6 7 -8 17 0
2 4 -5 7 -15 0
6 7 -18 0
2 4 -5 -7 15 0
2 4 -5 6 14 0
-5 -6 7 8 16 0
-5 -6 7 -8 -16 0
-5 -6 -8 18 0
-5 -6 7 -17 0
2 4 -6 -7 8 -16 0
2 4 -6 -7 -8 16 0
-5 -6 -8 -17 0
2 4 -5 -6 -14 0
2 4 -5 13 0
-5 23 0
1 3 4 -12 0
4 -22 0
5 6 8 -17 0
1 3 5 6 7 -15 0
5 6 -7 8 16 0
5 6 -7 -8 -16 0
1 3 5 6 -7 15 0
5 6 -7 -17 0
1 3 -4 6 -14 0
1 3 -4 7 8 -17 0
1 3 -4 -7 -8 -17 0
1 3 -4 -6 14 0
1 3 -4 5 13 0
-4 -5 6 8 -16 0
-4 -5 6 -8 16 0
-4 -5 6 7 15 0
-4 -5 -7 8 17 0
-4 -5 6 -7 -15 0
1 3 -5 -6 7 -15 0
-4 -5 -7 8 -16 0
-4 -5 -7 -8 16 0
1 3 -5 -6 -7 15 0
1 3 -4 -5 -13 0
1 3 -4 12 0
-4 22 0
2 3 -11 0
3 -21 0
4 5 7 8 -16 0
4 5 7 -8 16 0
4 5 7 -8 17 0
4 5 7 -18 0
2 4 5 6 -14 0
4 5 -6 8 -16 0
2 4 5 7 8 -17 0
4 5 -6 -8 16 0
4 5 -6 7 15 0
2 4 5 -7 -8 -17 0
4 5 -6 -7 -15 0
2 4 5 -6 14 0
2 -3 5 -13 0
2 -3 6 7 8 -16 0
2 -3 6 7 -8 16 0
2 -3 -6 -7 8 -16 0
2 -3 -6 -7 -8 16 0
2 -3 -5 13 0
2 -3 4 12 0
-3 -4 5 7 -15 0
-3 -4 5 -7 15 0
-3 -4 5 6 14 0
-3 -4 -6 7 8 16 0
-3 -4 -6 7 -8 -16 0
-3 -4 -6 -8 18 0
-3 -4 -6 7 -17 0
-3 -4 -6 -8 -17 0
-3 -4 5 -6 -14 0
2 -4 -5 7 8 -17 0
2 -4 -5 -7 -8 -17 0
2 -4 -5 6 -14 0
-3 -4 -6 7 -15 0
-3 -4 -6 -7 15 0
2 -4 -5 -6 14 0
2 -3 -4 -12 0
2 -3 11 0
-3 21 0
1 2 -10 0
2 -20 0
3 4 6 8 -17 0
3 4 6 7 -15 0
3 4 6 -7 8 16 0
3 4 6 -7 -8 -16 0
3 4 6 -7 15 0
3 4 6 -7 -17 0
1 3 4 5 -13 0
1 3 4 6 7 8 -16 0
1 3 4 6 7 -8 16 0
3 4 -5 7 -15 0
3 4 -5 -7 15 0
3 4 -5 6 14 0
1 3 4 -6 -7 8 -16 0
1 3 4 -6 -7 -8 16 0
3 4 -5 -6 -14 0
1 3 4 -5 13 0
1 -2 4 -12 0
1 -2 5 6 7 -15 0
1 -2 5 6 -7 15 0
1 -2 -5 -6 7 -15 0
1 -2 -5 -6 -7 15 0
1 -2 -4 12 0
1 -2 3 11 0
-2 -3 4 6 -14 0
-2 -3 4 7 8 -17 0
-2 -3 4 -7 -8 -17 0
-2 -3 4 -6 14 0
-2 -3 4 5 13 0
-2 -3 -5 6 8 -16 0
-2 -3 -5 6 -8 16 0
-2 -3 -5 6 7 15 0
-2 -3 -5 -7 8 17 0
-2 -3 -5 6 -7 -15 0
-2 -3 -5 -7 8 -16 0
-2 -3 -5 -7 -8 16 0
-2 -3 4 -5 -13 0
1 -3 -4 6 7 8 -16 0
1 -3 -4 6 7 -8 16 0
1 -3 -4 -6 -7 8 -16 0
1 -3 -4 -6 -7 -8 16 0
1 -3 -4 5 -13 0
-2 -3 -5 7 8 -17 0
-2 -3 -5 -7 -8 -17 0
-2 -3 -5 6 -14 0
-2 -3 -5 -6 14 0
1 -3 -4 -5 13 0
1 -2 -3 -11 0
1 -2 10 0
-2 20 0
1 -9 0
1 -19 0
2 3 5 7 8 -16 0
2 3 5 7 -8 16 0
2 3 5 7 -8 17 0
2 3 5 7 -18 0
2 3 5 6 -14 0
2 3 5 -6 8 -16 0
2 3 5 7 8 -17 0
2 3 5 -6 -8 16 0
2 3 5 -6 7 15 0
2 3 5 -7 -8 -17 0
2 3 5 -6 -7 -15 0
2 3 5 -6 14 0
2 3 4 -12 0
2 3 5 6 7 -15 0
2 3 5 6 -7 15 0
2 3 -4 6 -14 0
2 3 -4 7 8 -17 0
2 3 -4 -7 -8 -17 0
2 3 -4 -6 14 0
2 3 -4 5 13 0
2 3 -5 -6 7 -15 0
2 3 -5 -6 -7 15 0
2 3 -4 -5 -13 0
2 3 -4 12 0
-1 3 -11 0
-1 4 5 6 -14 0
-1 4 5 7 8 -17 0
-1 4 5 -7 -8 -17 0
-1 4 5 -6 14 0
-1 -4 -5 7 8 -17 0
-1 -4 -5 -7 -8 -17 0
-1 -4 -5 6 -14 0
-1 -4 -5 -6 14 0
-1 -3 11 0
-1 2 10 0
-1 -2 3 5 -13 0
-1 -2 3 6 7 8 -16 0
-1 -2 3 6 7 -8 16 0
-1 -2 3 -6 -7 8 -16 0
-1 -2 3 -6 -7 -8 16 0
-1 -2 3 -5 13 0
-1 -2 3 4 12 0
-1 -2 -4 5 7 -15 0
-1 -2 -4 5 -7 15 0
-1 -2 -4 5 6 14 0
-1 -2 -4 -6 7 8 16 0
-1 -2 -4 -6 7 -8 -16 0
-1 -2 -4 -6 -8 18 0
-1 -2 -4 -6 7 -17 0
-1 -2 -4 -6 -8 -17 0
-1 -2 -4 5 -6 -14 0
-1 -2 -4 -6 7 -15 0
-1 -2 -4 -6 -7 15 0
-1 -2 3 -4 -12 0
-2 -3 5 6 7 -15 0
-2 -3 5 6 -7 15 0
-2 -3 -5 -6 7 -15 0
-2 -3 -5 -6 -7 15 0
-2 -3 4 -12 0
-1 -2 -4 6 7 8 -16 0
-1 -2 -4 6 7 -8 16 0
-1 -2 -4 -6 -7 8 -16 0
-1 -2 -4 -6 -7 -8 16 0
-1 -2 -4 5 -13 0
-1 -2 -4 -5 13 0
-2 -3 -4 12 0
-1 -2 -10 0
-1 9 0
-1 19 0
